1395.50
0 8 28 53 22 4 70 2 97 21 69 79 67 49 94 55 42 20 75 77 43 26 63 74 92 57 71 89 93 29 83 52 60 62 31 88 33 6 98 5 40 36 30 87 78 39 14 81 35 12 72 76 61 16 68 7 44 59 84 90 17 32 27 25 47 66 48 58 91 10 37 86 19 18 85 1 80 3 56 96 65 41 38 45 9 24 54 99 50 73 51 95 82 11 46 64 15 34 13 23
